
Gurobi 9.1.2 (win64, Java) logging started Fri Nov  5 19:59:44 2021

Academic license - for non-commercial use only - expires 2022-10-30
Gurobi Optimizer version 9.1.2 build v9.1.2rc0 (win64)
Thread count: 6 physical cores, 12 logical processors, using up to 12 threads
Optimize a model with 60 rows, 800 columns and 1600 nonzeros
Model fingerprint: 0x4a82484a
Variable types: 0 continuous, 800 integer (800 binary)
Coefficient statistics:
  Matrix range     [1e+00, 1e+03]
  Objective range  [2e+01, 1e+03]
  Bounds range     [1e+00, 1e+00]
  RHS range        [1e+00, 9e+02]
Found heuristic solution: objective 15477.000000
Presolve removed 10 rows and 462 columns
Presolve time: 0.02s
Presolved: 50 rows, 338 columns, 676 nonzeros
Variable types: 0 continuous, 338 integer (338 binary)
Presolved: 50 rows, 338 columns, 676 nonzeros


Root relaxation: objective 1.796771e+04, 203 iterations, 0.00 seconds

    Nodes    |    Current Node    |     Objective Bounds      |     Work
 Expl Unexpl |  Obj  Depth IntInf | Incumbent    BestBd   Gap | It/Node Time

     0     0 17967.7054    0   23 15477.0000 17967.7054  16.1%     -    0s
H    0     0                    16927.000000 17967.7054  6.15%     -    0s
H    0     0                    17401.000000 17967.7054  3.26%     -    0s
     0     0 17950.6770    0   61 17401.0000 17950.6770  3.16%     -    0s
H    0     0                    17418.000000 17950.6770  3.06%     -    0s
     0     0 17892.0001    0   25 17418.0000 17892.0001  2.72%     -    0s
     0     0 17892.0001    0   11 17418.0000 17892.0001  2.72%     -    0s
     0     0 17892.0001    0   14 17418.0000 17892.0001  2.72%     -    0s
     0     0 17892.0001    0   20 17418.0000 17892.0001  2.72%     -    0s
H    0     0                    17576.000000 17892.0001  1.80%     -    0s
     0     0 17892.0001    0    7 17576.0000 17892.0001  1.80%     -    0s
     0     0 17892.0001    0   15 17576.0000 17892.0001  1.80%     -    0s
H    0     0                    17626.000000 17892.0001  1.51%     -    0s
H    0     0                    17647.000000 17892.0001  1.39%     -    0s
     0     0 17892.0001    0    9 17647.0000 17892.0001  1.39%     -    0s
     0     0 17892.0001    0    9 17647.0000 17892.0001  1.39%     -    1s
H    0     0                    17825.000000 17892.0001  0.38%     -    1s
     0     2 17892.0001    0    9 17825.0000 17892.0001  0.38%     -    1s
* 1136   412              21    17892.000057 17892.0001  0.00%  42.9    2s

Cutting planes:
  Gomory: 5
  Cover: 141
  Clique: 12
  MIR: 34
  StrongCG: 30
  Zero half: 2
  RLT: 1

Explored 1147 nodes (50179 simplex iterations) in 2.29 seconds
Thread count was 12 (of 12 available processors)

Solution count 9: 17892 17825 17647 ... 15477
No other solutions better than 17892

Optimal solution found (tolerance 1.00e-04)
Best objective 1.789200006034e+04, best bound 1.789200006034e+04, gap 0.0000%
